NAME : single
TYPE : ATSP
DIMENSION : 12
EDGE_WEIGHT_TYPE : EXPLICIT
EDGE_WEIGHT_FORMAT : FULL_MATRIX
EDGE_WEIGHT_SECTION
0 50000 813 771 50000 50000 50000 50000 50000 50000 50000 50000 
0 0 114 279 277 50000 50000 50000 50000 50000 50000 50000 
0 114 0 228 272 50000 50000 50000 50000 50000 50000 50000 
0 279 228 0 56 50000 50000 50000 50000 50000 50000 50000 
0 277 272 56 0 50000 50000 50000 50000 50000 50000 50000 
0 50000 50000 50000 50000 0 50000 50000 50000 50000 50000 50000 
0 50000 50000 50000 50000 50000 0 36 109 147 52 50000 
0 50000 50000 50000 50000 50000 36 0 72 111 88 50000 
0 50000 50000 50000 50000 50000 109 72 0 47 161 50000 
0 50000 50000 50000 50000 50000 147 111 47 0 199 50000 
0 50000 50000 50000 50000 50000 52 88 161 199 0 50000 
0 50000 50000 50000 50000 50000 50000 50000 50000 50000 50000 0 
EOF